objective value:                 2.74747999942955e-06
x_1_2                                               1 	(obj:0)
x_2_2                                               1 	(obj:0)
x_3_2                                               1 	(obj:0)
x_4_2                                               1 	(obj:0)
x_5_1                                               1 	(obj:0)
x_6_1                                               1 	(obj:0)
x_7_1                                               1 	(obj:0)
x_8_1                                1.00000000000284 	(obj:0)
x_9_1                                               1 	(obj:0)
x_10_1                                              1 	(obj:0)
x_11_2                                              1 	(obj:0)
x_12_2                                              1 	(obj:0)
x_13_1                                              1 	(obj:0)
x_14_1                                              1 	(obj:0)
x_15_2                                              1 	(obj:0)
x_16_1                                              1 	(obj:0)
x_17_2                                              1 	(obj:0)
x_18_1                                              1 	(obj:0)
x_19_1                                              1 	(obj:0)
x_20_2                                              1 	(obj:0)
x_21_1                                              1 	(obj:0)
x_22_2                                              1 	(obj:0)
x_23_2                                              1 	(obj:0)
x_24_2                                              1 	(obj:0)
x_25_2                                              1 	(obj:0)
x_26_2                                              1 	(obj:0)
x_27_2                                              1 	(obj:0)
x_28_1                                              1 	(obj:0)
x_29_1                                              1 	(obj:0)
x_30_1                                              1 	(obj:0)
x_31_2                                              1 	(obj:0)
x_32_1                                              1 	(obj:0)
x_33_2                                              1 	(obj:0)
x_34_1                                              1 	(obj:0)
x_35_2                                              1 	(obj:0)
x_36_2                                              1 	(obj:0)
x_37_1                                              1 	(obj:0)
x_38_2                                              1 	(obj:0)
x_39_2                                              1 	(obj:0)
x_40_2                                              1 	(obj:0)
ind_1                                               1 	(obj:0)
abs_1_2                                             1 	(obj:0)
ind_2                                               1 	(obj:0)
epsI                             2.74747999942955e-06 	(obj:1)
prodt_x_39_2_t_x_40_2_coh_2                         1 	(obj:0)
prodt_x_1_2_t_x_2_1_more_coh_1       5.51008032150066 	(obj:0)
prodt_x_5_1_t_x_10_1_more_coh_1          10.975922424 	(obj:0)
prodt_x_6_1_t_x_7_1_more_coh_1          10.4307682705 	(obj:0)
prodt_x_7_1_t_x_8_1_more_coh_1       10.8927987480023 	(obj:0)
prodt_x_8_1_t_x_10_1_more_coh_1         6.76568787475 	(obj:0)
prodt_x_9_1_t_x_10_1_more_coh_1      4.01598836466666 	(obj:0)
prodt_x_10_1_t_x_16_1_more_coh_1          5.461515532 	(obj:0)
prodt_x_13_1_t_x_14_1_more_coh_1     5.54389152833333 	(obj:0)
prodt_x_14_1_t_x_15_1_more_coh_1         11.427864101 	(obj:0)
prodt_x_16_1_t_x_18_1_more_coh_1         5.6511219165 	(obj:0)
prodt_x_18_1_t_x_19_1_more_coh_1     4.62991938866667 	(obj:0)
prodt_x_19_1_t_x_21_1_more_coh_1          1.023557322 	(obj:0)
prodt_x_21_1_t_x_22_1_more_coh_1        2.78755891375 	(obj:0)
prodt_x_28_1_t_x_31_1_more_coh_1          1.517587022 	(obj:0)
prodt_x_29_1_t_x_30_1_more_coh_1          5.188934899 	(obj:0)
prodt_x_30_1_t_x_34_1_more_coh_1          4.031796732 	(obj:0)
prodt_x_32_1_t_x_33_1_more_coh_1         0.3413327725 	(obj:0)
prodt_x_34_1_t_x_35_1_more_coh_1         1.0009455055 	(obj:0)
prodt_x_1_2_t_x_2_2_more_coh_2       10.1424186974993 	(obj:0)
prodt_x_2_2_t_x_4_2_more_coh_2       11.5866324279985 	(obj:0)
prodt_x_3_2_t_x_4_2_more_coh_2       6.70858746299999 	(obj:0)
prodt_x_4_2_t_x_8_2_more_coh_2        18.999153780998 	(obj:0)
prodt_x_11_2_t_x_12_2_more_coh_2         10.076553477 	(obj:0)
prodt_x_12_2_t_x_14_2_more_coh_2        5.43299477575 	(obj:0)
prodt_x_15_2_t_x_16_2_more_coh_2         8.2032041135 	(obj:0)
prodt_x_17_2_t_x_21_2_more_coh_2           6.19663152 	(obj:0)
prodt_x_20_2_t_x_23_2_more_coh_2          6.223362248 	(obj:0)
prodt_x_22_2_t_x_26_2_more_coh_2          9.818608969 	(obj:0)
prodt_x_23_2_t_x_25_2_more_coh_2         7.3121416055 	(obj:0)
prodt_x_24_2_t_x_27_2_more_coh_2          6.163452715 	(obj:0)
prodt_x_25_2_t_x_27_2_more_coh_2         10.910449362 	(obj:0)
prodt_x_26_2_t_x_27_2_more_coh_2     4.52461976033333 	(obj:0)
prodt_x_27_2_t_x_28_2_more_coh_2          4.512214871 	(obj:0)
prodt_x_31_2_t_x_32_2_more_coh_2         2.0752436735 	(obj:0)
prodt_x_33_2_t_x_34_2_more_coh_2          5.567070627 	(obj:0)
prodt_x_35_2_t_x_38_2_more_coh_2           1.50930749 	(obj:0)
prodt_x_36_2_t_x_37_2_more_coh_2          2.722174694 	(obj:0)
prodt_x_38_2_t_x_39_2_more_coh_2          1.344317655 	(obj:0)
prodt_x_1_2_t_x_4_2_more_irrev1_2_1    0.043758144197775 	(obj:0)
prodt_x_2_2_t_x_3_1_more_irrev1_2_1    -3.52910739209933 	(obj:0)
prodt_x_3_2_t_x_4_1_more_irrev1_2_1    -1.98907277038449 	(obj:0)
prodt_x_4_2_t_x_5_1_more_irrev1_2_1    -1.48144612857626 	(obj:0)
prodt_x_5_1_t_x_7_2_more_irrev1_2_1  -0.0806357693634735 	(obj:0)
prodt_x_6_1_t_x_7_2_more_irrev1_2_1     2.27797143147706 	(obj:0)
prodt_x_7_1_t_x_9_2_more_irrev1_2_1    -1.63909776725634 	(obj:0)
prodt_x_8_1_t_x_14_2_more_irrev1_2_1    0.056093139461356 	(obj:0)
prodt_x_9_1_t_x_10_2_more_irrev1_2_1     1.23527941668733 	(obj:0)
prodt_x_10_1_t_x_12_2_more_irrev1_2_1    -3.58196137842157 	(obj:0)
prodt_x_11_2_t_x_12_1_more_irrev1_2_1     3.15096491862044 	(obj:0)
prodt_x_12_2_t_x_13_1_more_irrev1_2_1    -2.00823074348563 	(obj:0)
prodt_x_13_1_t_x_15_2_more_irrev1_2_1    0.338274381469289 	(obj:0)
prodt_x_14_1_t_x_16_2_more_irrev1_2_1    -0.74009416737615 	(obj:0)
prodt_x_15_2_t_x_16_1_more_irrev1_2_1   -0.248943690252472 	(obj:0)
prodt_x_16_1_t_x_19_2_more_irrev1_2_1      1.7143403909228 	(obj:0)
prodt_x_17_2_t_x_25_1_more_irrev1_2_1     -2.7935386421484 	(obj:0)
prodt_x_18_1_t_x_19_2_more_irrev1_2_1    0.372037823911932 	(obj:0)
prodt_x_19_1_t_x_23_2_more_irrev1_2_1     1.46916251695418 	(obj:0)
prodt_x_20_2_t_x_21_1_more_irrev1_2_1    -2.68248588202437 	(obj:0)
prodt_x_21_1_t_x_22_2_more_irrev1_2_1   0.0959824728233185 	(obj:0)
prodt_x_22_2_t_x_23_1_more_irrev1_2_1     1.51494979279392 	(obj:0)
prodt_x_23_2_t_x_27_1_more_irrev1_2_1     1.42935044590272 	(obj:0)
prodt_x_24_2_t_x_32_1_more_irrev1_2_1      1.3393325846102 	(obj:0)
prodt_x_25_2_t_x_27_1_more_irrev1_2_1    -1.30558472876499 	(obj:0)
prodt_x_26_2_t_x_27_1_more_irrev1_2_1   -0.227161458662528 	(obj:0)
prodt_x_27_2_t_x_29_1_more_irrev1_2_1   -0.616053952010762 	(obj:0)
prodt_x_28_1_t_x_30_2_more_irrev1_2_1   -0.536506439728219 	(obj:0)
prodt_x_29_1_t_x_30_2_more_irrev1_2_1   -0.949104678633645 	(obj:0)
prodt_x_30_1_t_x_32_2_more_irrev1_2_1   -0.128447855674053 	(obj:0)
prodt_x_31_2_t_x_32_1_more_irrev1_2_1   -0.558172162492482 	(obj:0)
prodt_x_32_1_t_x_33_2_more_irrev1_2_1    0.524359273858429 	(obj:0)
prodt_x_33_2_t_x_34_1_more_irrev1_2_1   -0.223728176901014 	(obj:0)
prodt_x_34_1_t_x_35_2_more_irrev1_2_1   -0.623233985436525 	(obj:0)
prodt_x_35_2_t_x_37_1_more_irrev1_2_1    0.287373356303113 	(obj:0)
prodt_x_36_2_t_x_37_1_more_irrev1_2_1    0.391454766984993 	(obj:0)
prodt_x_37_1_t_x_38_2_more_irrev1_2_1     2.04184068565595 	(obj:0)
prodt_x_1_2_t_x_4_2_more_irrev2_2_1   -0.043758144197775 	(obj:0)
prodt_x_2_2_t_x_3_1_more_irrev2_2_1     3.52910739209933 	(obj:0)
prodt_x_3_2_t_x_4_1_more_irrev2_2_1     1.98907277038449 	(obj:0)
prodt_x_4_2_t_x_5_1_more_irrev2_2_1     1.48144612857626 	(obj:0)
prodt_x_5_1_t_x_7_2_more_irrev2_2_1   0.0806357693634735 	(obj:0)
prodt_x_6_1_t_x_7_2_more_irrev2_2_1    -2.27797143147706 	(obj:0)
prodt_x_7_1_t_x_9_2_more_irrev2_2_1     1.63909776725634 	(obj:0)
prodt_x_8_1_t_x_14_2_more_irrev2_2_1  -0.0560931394613666 	(obj:0)
prodt_x_9_1_t_x_10_2_more_irrev2_2_1    -1.23527941668731 	(obj:0)
prodt_x_10_1_t_x_12_2_more_irrev2_2_1      3.5819613784218 	(obj:0)
prodt_x_11_2_t_x_12_1_more_irrev2_2_1    -3.15096491862044 	(obj:0)
prodt_x_12_2_t_x_13_1_more_irrev2_2_1     2.00823074348563 	(obj:0)
prodt_x_13_1_t_x_15_2_more_irrev2_2_1   -0.338274381469289 	(obj:0)
prodt_x_14_1_t_x_16_2_more_irrev2_2_1     0.74009416737615 	(obj:0)
prodt_x_15_2_t_x_16_1_more_irrev2_2_1    0.248943690252472 	(obj:0)
prodt_x_16_1_t_x_19_2_more_irrev2_2_1     -1.7143403909228 	(obj:0)
prodt_x_17_2_t_x_25_1_more_irrev2_2_1      2.7935386421484 	(obj:0)
prodt_x_18_1_t_x_19_2_more_irrev2_2_1   -0.372037823913983 	(obj:0)
prodt_x_19_1_t_x_23_2_more_irrev2_2_1    -1.46916251695418 	(obj:0)
prodt_x_20_2_t_x_21_1_more_irrev2_2_1     2.68248588202437 	(obj:0)
prodt_x_21_1_t_x_22_2_more_irrev2_2_1  -0.0959824728370737 	(obj:0)
prodt_x_22_2_t_x_23_1_more_irrev2_2_1    -1.51494979279392 	(obj:0)
prodt_x_23_2_t_x_27_1_more_irrev2_2_1    -1.42935044590272 	(obj:0)
prodt_x_24_2_t_x_32_1_more_irrev2_2_1     -1.3393325846102 	(obj:0)
prodt_x_25_2_t_x_27_1_more_irrev2_2_1     1.30558472876499 	(obj:0)
prodt_x_26_2_t_x_27_1_more_irrev2_2_1    0.227161458662528 	(obj:0)
prodt_x_27_2_t_x_29_1_more_irrev2_2_1    0.616053952010762 	(obj:0)
prodt_x_28_1_t_x_30_2_more_irrev2_2_1    0.536506439728218 	(obj:0)
prodt_x_29_1_t_x_30_2_more_irrev2_2_1     0.94910467863364 	(obj:0)
prodt_x_30_1_t_x_32_2_more_irrev2_2_1    0.128447855674053 	(obj:0)
prodt_x_31_2_t_x_32_1_more_irrev2_2_1    0.558172162492482 	(obj:0)
prodt_x_32_1_t_x_33_2_more_irrev2_2_1   -0.524359273858429 	(obj:0)
prodt_x_33_2_t_x_34_1_more_irrev2_2_1    0.223728176901014 	(obj:0)
prodt_x_34_1_t_x_35_2_more_irrev2_2_1    0.623233985436525 	(obj:0)
prodt_x_35_2_t_x_37_1_more_irrev2_2_1   -0.287373356303113 	(obj:0)
prodt_x_36_2_t_x_37_1_more_irrev2_2_1   -0.391454766984993 	(obj:0)
prodt_x_37_1_t_x_38_2_more_irrev2_2_1     2.04184068565595 	(obj:0)
SCIP Status        : solving was interrupted [time limit reached]
Total Time         :    3600.01
  solving          :    3600.01
  presolving       :       0.22 (included in solving)
  reading          :       0.00
  copying          :       1.59 (104 #copies) (minimal 0.00, maximal 0.03, average 0.02)
Original Problem   :
  Problem name     : ../instances/Pot3NonCycle/Pot3NonCycle_T_40B_1t.txt.spa
  Variables        : 181 (180 binary, 0 integer, 0 implicit integer, 1 continuous)
  Constraints      : 333 initial, 333 maximal
  Objective sense  : maximize
Presolved Problem  :
  Problem name     : t_../instances/Pot3NonCycle/Pot3NonCycle_T_40B_1t.txt.spa
  Variables        : 1230 (172 binary, 0 integer, 16 implicit integer, 1042 continuous)
  Constraints      : 4291 initial, 4317 maximal
Presolvers         :   ExecTime  SetupTime  Calls  FixedVars   AggrVars   ChgTypes  ChgBounds   AddHoles    DelCons    AddCons   ChgSides   ChgCoefs
  boundshift       :       0.00       0.00      0          0          0          0          0          0          0          0          0          0
  components       :       0.00       0.00      1          0          0          0          0          0          0          0          0          0
  convertinttobin  :       0.00       0.00      0          0          0          0          0          0          0          0          0          0
  domcol           :       0.01       0.00      1          0          0          0          0          0          0          0          0          0
  dualagg          :       0.00       0.00      0          0          0          0          0          0          0          0          0          0
  dualinfer        :       0.00       0.00      0          0          0          0          0          0          0          0          0          0
  gateextraction   :       0.00       0.00      3          0          0          0          0          0        108         34          0          0
  implfree         :       0.00       0.00      0          0          0          0          0          0          0          0          0          0
  implics          :       0.00       0.00      4          0          0          0          0          0          0          0          0          0
  inttobinary      :       0.00       0.00      0          0          0          0          0          0          0          0          0          0
  redvub           :       0.00       0.00      0          0          0          0          0          0          0          0          0          0
  stuffing         :       0.00       0.00      1          0          0          0          0          0          0          0          0          0
  trivial          :       0.00       0.00      7          0          0          0          0          0          0          0          0          0
  tworowbnd        :       0.00       0.00      0          0          0          0          0          0          0          0          0          0
  dualfix          :       0.00       0.00      7          4          0          0          0          0          0          0          0          0
  genvbounds       :       0.00       0.00      0          0          0          0          0          0          0          0          0          0
  probing          :       0.14       0.00      1          0          0          0          4          0          0          0          0          0
  pseudoobj        :       0.00       0.00      0          0          0          0          0          0          0          0          0          0
  varbound         :       0.00       0.00      9          0          0          0          0          0         28         28          0          0
  setppc           :       0.00       0.00     12          0          0          0          0          0          0          0          0          0
  and              :       0.00       0.00      4          0         12          0          0          0         12          0          0          0
  linear           :       0.04       0.00      9          3          1          0          4          0          7          0         12         12
  logicor          :       0.00       0.00      7          0          0          0          0          0          0          0          0          0
  bounddisjunction :       0.00       0.00      0          0          0          0          0          0          0          0          0          0
  quadratic        :       0.03       0.00      2          0          0          0          0          0          0       4051          0          0
  root node        :          -          -      -          1          -          -         15          -          -          -          -          -
Constraints        :     Number  MaxNumber  #Separate #Propagate    #EnfoLP    #EnfoPS     #Check   #ResProp    Cutoffs    DomReds       Cuts    Applied      Conss   Children
  integral         :          0          0          0          0     994085          0     218665          0          0      68044          0          0          0    1604658
  varbound         :       1885       1885         18    4727291     188331          1     216738      45454       1032    7470679          0          0          0          0
  setppc           :        210+       212         18    4725849     188332          1     141807      39091       1830     798824          0          0          0          0
  and              :         22         22     937212    4185386     184583          1     139082       1112          0      38240      61650      61644          0          0
  linear           :       2099       2099         18    4729665     135973          0     110399      21471       4584   30950888   16314654   16314153          0          0
  logicor          :         75+       124         12     758061          0          0          0       5626          3      16999          0          0          0          0
  bounddisjunction :          0+        38          0     672576          0          0          0        227         48     171209          0          0          0          0
  countsols        :          0          0          0          0          0          1         12          0          0          0          0          0          0          0
Constraint Timings :  TotalTime  SetupTime   Separate  Propagate     EnfoLP     EnfoPS      Check    ResProp    SB-Prop
  integral         :      29.80       0.00       0.00       0.00      29.78       0.00       0.02       0.00       0.00
  varbound         :      29.10       0.00       0.00      12.42       3.71       0.00      12.88       0.00       0.09
  setppc           :      33.08       0.00       0.00      32.54       0.09       0.00       0.17       0.00       0.28
  and              :       1.39       0.00       0.22       0.82       0.16       0.00       0.18       0.00       0.01
  linear           :     157.60       0.00       0.02     126.99      21.75       0.00       8.15       0.02       0.67
  logicor          :       0.91       0.00       0.00       0.87       0.00       0.00       0.00       0.01       0.03
  bounddisjunction :       0.58       0.00       0.00       0.58       0.00       0.00       0.00       0.00       0.00
  countsols        :       0.00       0.00       0.00       0.00       0.00       0.00       0.00       0.00       0.00
Propagators        : #Propagate   #ResProp    Cutoffs    DomReds
  dualfix          :          2          0          0          0
  genvbounds       :          0          0          0          0
  obbt             :          0          0          0          0
  probing          :          0          0          0          0
  pseudoobj        :    2984109          0          1         14
  redcost          :    1809144          0          0         15
  rootredcost      :         10          0          0          0
  vbounds          :    5538437         13          0        249
Propagator Timings :  TotalTime  SetupTime   Presolve  Propagate    ResProp    SB-Prop
  dualfix          :       0.00       0.00       0.00       0.00       0.00       0.00
  genvbounds       :       0.66       0.00       0.00       0.66       0.00       0.00
  obbt             :       0.00       0.00       0.00       0.00       0.00       0.00
  probing          :       0.14       0.00       0.14       0.00       0.00       0.00
  pseudoobj        :       1.31       0.00       0.00       1.31       0.00       0.00
  redcost          :       7.83       0.00       0.00       7.83       0.00       0.00
  rootredcost      :       0.84       0.00       0.00       0.84       0.00       0.00
  vbounds          :       1.08       0.00       0.00       1.08       0.00       0.00
Conflict Analysis  :       Time      Calls    Success    DomReds  Conflicts   Literals    Reconvs ReconvLits   LP Iters
  propagation      :       0.13       2914       2910          -      15811       63.1         60       44.1          -
  infeasible LP    :       0.03        455          0          -          0        0.0          0        0.0          0
  bound exceed. LP :       0.00          0          0          -          0        0.0          0        0.0          0
  strong branching :       0.00          0          0          -          0        0.0          0        0.0          0
  pseudo solution  :       0.00          0          0          -          0        0.0          0        0.0          -
  applied globally :       0.03          -          -          0       2659       11.7          -          -          -
  applied locally  :          -          -          -          0        302       39.9          -          -          -
Separators         :   ExecTime  SetupTime      Calls    Cutoffs    DomReds       Cuts    Applied      Conss
  cut pool         :       0.00                    16          -          -       1240          -          -    (maximal pool size: 492)
  cgmip            :       0.00       0.00          0          0          0          0          0          0
  clique           :       0.03       0.00         17          0          0        102         10          0
  closecuts        :       0.00       0.00          0          0          0          0          0          0
  cmir             :       0.12       0.00         10          0          0        126         86          0
  disjunctive      :       0.00       0.00          0          0          0          0          0          0
  eccuts           :       0.00       0.00          0          0          0          0          0          0
  flowcover        :       0.99       0.00         15          0          0        239         41          0
  gomory           :       0.26       0.00         10          0          0          6          6          0
  impliedbounds    :       0.01       0.00         17          0          0       1175         87          0
  intobj           :       0.00       0.00          0          0          0          0          0          0
  mcf              :       0.00       0.00          1          0          0          0          0          0
  oddcycle         :       0.00       0.00          0          0          0          0          0          0
  rapidlearning    :       0.00       0.00          0          0          0          0          0          0
  strongcg         :       0.33       0.00         17          0          0          0          0          0
  zerohalf         :       0.00       0.00          0          0          0          0          0          0
Pricers            :   ExecTime  SetupTime      Calls       Vars
  problem variables:       0.00          -          0          0
Branching Rules    :   ExecTime  SetupTime   BranchLP  BranchExt   BranchPS    Cutoffs    DomReds       Cuts      Conss   Children
  allfullstrong    :       0.00       0.00          0          0          0          0          0          0          0          0
  cloud            :       0.00       0.00          0          0          0          0          0          0          0          0
  distribution     :       0.00       0.00          0          0          0          0          0          0          0          0
  fullstrong       :       0.00       0.00          0          0          0          0          0          0          0          0
  inference        :       0.00       0.00          0          0          1          0          0          0          0          2
  leastinf         :       0.00       0.00          0          0          0          0          0          0          0          0
  mostinf          :       0.00       0.00          0          0          0          0          0          0          0          0
  multaggr         :       0.00       0.00          0          0          0          0          0          0          0          0
  nodereopt        :       0.00       0.00          0          0          0          0          0          0          0          0
  pscost           :       0.00       0.00          0          0          0          0          0          0          0          0
  random           :       0.00       0.00          0          0          0          0          0          0          0          0
  relpscost        :      29.32       0.00     805753          0          0          0      68044          0         -2    1604658
Primal Heuristics  :   ExecTime  SetupTime      Calls      Found       Best
  LP solutions     :       0.00          -          -          0          -
  pseudo solutions :       0.00          -          -          0          -
  strong branching :       0.00          -          -          0          -
  SpaGreedy        :     109.43       0.00      80984          0          0
  actconsdiving    :       0.00       0.00          0          0          0
  bound            :       0.00       0.00          0          0          0
  clique           :       0.00       0.00          0          0          0
  coefdiving       :     108.12       0.00       9511          0          0
  crossover        :       7.72       0.00          5          1          0
  dins             :       0.00       0.00          0          0          0
  distributiondivin:     149.38       0.00       9712          1          1
  dualval          :       0.00       0.00          0          0          0
  feaspump         :      26.58       0.00      10357          0          0
  fixandinfer      :       0.00       0.00          0          0          0
  fracdiving       :     108.61       0.00       8687          1          1
  guideddiving     :     115.08       0.00      10144          2          2
  indicator        :       0.09       0.00          0          0          0
  intdiving        :       0.00       0.00          0          0          0
  intshifting      :       3.49       0.00        411          0          0
  linesearchdiving :     113.06       0.00       9921          0          0
  localbranching   :       0.00       0.00          0          0          0
  mutation         :       0.00       0.00          0          0          0
  nlpdiving        :       0.02       0.00          0          0          0
  objpscostdiving  :      34.78       0.00       3611          0          0
  octane           :       0.00       0.00          0          0          0
  ofins            :       0.00       0.00          0          0          0
  oneopt           :       0.19       0.00         10          0          0
  proximity        :       0.00       0.00          0          0          0
  pscostdiving     :     132.11       0.00      10923          5          5
  randrounding     :       1.20       0.00      65475          0          0
  rens             :       0.00       0.00          0          0          0
  reoptsols        :       0.00       0.00          0          0          0
  rins             :       3.89       0.00         48          0          0
  rootsoldiving    :      49.51       0.00       5088          0          0
  rounding         :       0.85       0.00      12743          0          0
  shiftandpropagate:       0.03       0.00          1          1          1
  shifting         :       2.10       0.00       4064          0          0
  simplerounding   :       0.09       0.00          0          0          0
  subnlp           :       0.17       0.00          0          0          0
  trivial          :       0.00       0.00          2          0          0
  trivialnegation  :       0.00       0.00          0          0          0
  trysol           :       0.12       0.00          0          0          0
  twoopt           :       0.00       0.00          0          0          0
  undercover       :       0.00       0.00          1          0          0
  vbounds          :       0.00       0.00          0          0          0
  veclendiving     :     109.72       0.00       9528          0          0
  zeroobj          :       0.00       0.00          0          0          0
  zirounding       :       0.26       0.00       1000          0          0
  other solutions  :          -          -          -          0          -
Diving Statistics  :      Calls      Nodes   LP Iters Backtracks   MinDepth   MaxDepth   AvgDepth  NLeafSols  MinSolDpt  MaxSolDpt  AvgSolDpt
  actconsdiving    :          0          -          -          -          -          -          -          -          -          -          -
  coefdiving       :       9511     129710    2056440       2183         15         60       39.7          -          -          -          -
  distributiondivin:       9712     125035    2079741       1237         13         66       39.0          -          -          -          -
  fracdiving       :       8687     120418    2082805        831         16         59       40.1          -          -          -          -
  guideddiving     :      10144     129946    2100971       1293         13         69       38.8          -          -          -          -
  linesearchdiving :       9921     123770    2056328        594         17         51       38.7          -          -          -          -
  pscostdiving     :      10923     137867    2159582        253         14         73       38.8          -          -          -          -
  veclendiving     :       9528     129760    2056487       1310         16         49       39.9          -          -          -          -
LP                 :       Time      Calls Iterations  Iter/call   Iter/sec  Time-0-It Calls-0-It
  primal LP        :       0.00          2          0       0.00          -       0.00          2
  dual LP          :    1831.19    1273669   41065809      32.31   22425.75       0.58       2786
  lex dual LP      :       0.00          0          0       0.00          -
  barrier LP       :       0.00          0          0       0.00          -       0.00          0
  diving/probing LP:     650.77     435436   16102731      36.98   24744.12
  strong branching :      14.78       4697     233571      49.73   15803.18
    (at root node) :          -         42       7287     173.50          -
  conflict analysis:       0.00          0          0       0.00          -
B&B Tree           :
  number of runs   :          1
  nodes            :     802419 (802330 internal, 89 leaves)
  nodes (total)    :     802419 (802330 internal, 89 leaves)
  nodes left       :     802242
  max depth        :         44
  max depth (total):         44
  backtracks       :     146761 (18.3%)
  delayed cutoffs  :          0
  repropagations   :        377 (2221 domain reductions, 0 cutoffs)
  avg switch length:       4.36
  switching time   :     219.55
Root Node          :
  First LP value   : +3.00000000000000e+00
  First LP Iters   :        894 (89400.00 Iter/sec)
  First LP Time    :       0.01
  Final Dual Bound : +8.61690238213142e-01
  Final Root Iters :       3073
Solution           :
  Solutions found  :         11 (10 improvements)
  First Solution   : +0.00000000000000e+00   (in run 1, after 1 nodes, 0.24 seconds, depth 30, found by <shiftandpropagate>)
  Gap First Sol.   :   infinite
  Gap Last Sol.    :   18048.78 %
  Primal Bound     : +2.74747999942955e-06   (in run 1, after 680982 nodes, 3060.47 seconds, depth 43, found by <pscostdiving>)
  Dual Bound       : +4.95807690146024e-04
  Gap              :   17945.91 %
  Avg. Gap         :      99.53 % (358304.38 primal-dual integral)
